Reading model...
...model read.
creating competitive generators file...
...competitive generators recorded.
Loading data...
.. real-time data read.
Compiling instance...
...instance created.
Creating Offer Mitigation (model will solve as dispatch if TRUE)...
...storage offer mitigation file created
Converting model to MPEC...
...converted
NOTE: initial MIP solve with only storage competitive to get feasible solution
Solving...

Welcome to IBM(R) ILOG(R) CPLEX(R) Interactive Optimizer 12.9.0.0
  with Simplex, Mixed Integer & Barrier Optimizers
5725-A06 5725-A29 5724-Y48 5724-Y49 5724-Y54 5724-Y55 5655-Y21
Copyright IBM Corp. 1988, 2019.  All Rights Reserved.

Type 'help' for a list of available commands.
Type 'help' followed by a command name for more
information on commands.

CPLEX> Logfile 'cplex.log' closed.
Logfile 'C:\Users\llavin\Desktop\test826\logs\tmp7hpngoyj.cplex.log' open.
CPLEX> New value for parallel optimization mode: -1
CPLEX> New value for mixed integer optimality gap tolerance: 0.01
CPLEX> New value for feasibility tolerance: 1e-09
CPLEX> New value for deterministic time limit in ticks: 150000
CPLEX> Problem 'C:\Users\llavin\Desktop\test826\logs\tmplc5ot297.pyomo.lp' read.
Read time = 0.53 sec. (28.82 ticks)
CPLEX> Problem name         : C:\Users\llavin\Desktop\test826\logs\tmplc5ot297.pyomo.lp
Objective sense      : Maximize
Variables            :  107783  [Nneg: 1,  Box: 44058,  Free: 8928,
                                 Binary: 54796]
Objective nonzeros   :   17377
Linear constraints   :  246903  [Less: 82866,  Greater: 118424,  Equal: 45613]
  Nonzeros           :  618269
  RHS nonzeros       :  134881

Variables            : Min LB: -5000.000        Max UB: 1000000.       
Objective nonzeros   : Min   : 0.1944444        Max   : 208.3333       
Linear constraints   :
  Nonzeros           : Min   : 0.1944444        Max   : 1000000.       
  RHS nonzeros       : Min   : 0.1944444        Max   : 1000000.       
CPLEX> CPXPARAM_Parallel                                -1
CPXPARAM_Simplex_Tolerances_Feasibility          1.0000000000000001e-09
CPXPARAM_DetTimeLimit                            150000
CPXPARAM_MIP_Tolerances_MIPGap                   0.01
Tried aggregator 3 times.
MIP Presolve eliminated 182851 rows and 42710 columns.
MIP Presolve added 5998 rows and 0 columns.
MIP Presolve modified 49800 coefficients.
Aggregator did 25662 substitutions.
Reduced MIP has 44388 rows, 37779 columns, and 122842 nonzeros.
Reduced MIP has 14878 binaries, 0 generals, 0 SOSs, and 0 indicators.
Presolve time = 0.59 sec. (346.43 ticks)
Probing fixed 868 vars, tightened 10189 bounds.
Probing time = 0.41 sec. (20.70 ticks)
Tried aggregator 2 times.
MIP Presolve eliminated 1928 rows and 1736 columns.
MIP Presolve modified 11554 coefficients.
Aggregator did 48 substitutions.
Reduced MIP has 42412 rows, 35995 columns, and 117106 nonzeros.
Reduced MIP has 14010 binaries, 0 generals, 0 SOSs, and 0 indicators.
Presolve time = 0.23 sec. (198.91 ticks)
Probing fixed 0 vars, tightened 4484 bounds.
Probing time = 0.95 sec. (83.90 ticks)
Clique table members: 94598.
MIP emphasis: balance optimality and feasibility.
MIP search method: dynamic search.
Parallel mode: opportunistic, using up to 32 threads.
Root relaxation solution time = 0.86 sec. (1355.27 ticks)

        Nodes                                         Cuts/
   Node  Left     Objective  IInf  Best Integer    Best Bound    ItCnt     Gap

      0     0        0.0000     2                      0.0000     6974         
*     0+    0                            0.0000        0.0000             0.00%
      0     0        cutoff              0.0000        0.0000     6974    0.00%
Elapsed time = 3.75 sec. (2395.75 ticks, tree = 0.01 MB, solutions = 1)

Root node processing (before b&c):
  Real time             =    3.78 sec. (2399.52 ticks)
Parallel b&c, 32 threads:
  Real time             =    0.00 sec. (0.00 ticks)
  Sync time (average)   =    0.00 sec.
  Wait time (average)   =    0.00 sec.
                          ------------
Total (root+branch&cut) =    3.78 sec. (2399.52 ticks)

Solution pool: 1 solution saved.

MIP - Integer optimal solution:  Objective =  0.0000000000e+00
Solution time =    3.81 sec.  Iterations = 6974  Nodes = 0
Deterministic time = 2399.82 ticks  (629.38 ticks/sec)

CPLEX> Incumbent solution written to file 'C:\Users\llavin\Desktop\test826\logs\tmpnyihr20n.cplex.sol'.
CPLEX> NOTE: no warmstart specified for MIP iteration, default behavior is true
NOTE: resolving with all competitive generators using storage-only solution to warmstart
Solving...

Welcome to IBM(R) ILOG(R) CPLEX(R) Interactive Optimizer 12.9.0.0
  with Simplex, Mixed Integer & Barrier Optimizers
5725-A06 5725-A29 5724-Y48 5724-Y49 5724-Y54 5724-Y55 5655-Y21
Copyright IBM Corp. 1988, 2019.  All Rights Reserved.

Type 'help' for a list of available commands.
Type 'help' followed by a command name for more
information on commands.

CPLEX> Logfile 'cplex.log' closed.
Logfile 'C:\Users\llavin\Desktop\test826\logs\tmp6zvlzesg.cplex.log' open.
CPLEX> New value for parallel optimization mode: -1
CPLEX> New value for mixed integer optimality gap tolerance: 0.01
CPLEX> New value for feasibility tolerance: 1e-09
CPLEX> New value for deterministic time limit in ticks: 150000
CPLEX> Problem 'C:\Users\llavin\Desktop\test826\logs\tmpni8hj4wu.pyomo.lp' read.
Read time = 0.53 sec. (28.87 ticks)
CPLEX> MIP start file 'C:\Users\llavin\Desktop\test826\logs\tmp989vrcro.cplex.mst' read.
CPLEX> Problem name         : C:\Users\llavin\Desktop\test826\logs\tmpni8hj4wu.pyomo.lp
Objective sense      : Maximize
Variables            :  109223  [Nneg: 1,  Box: 45498,  Free: 8928,
                                 Binary: 54796]
Objective nonzeros   :   18769
Linear constraints   :  246903  [Less: 82866,  Greater: 118424,  Equal: 45613]
  Nonzeros           :  618269
  RHS nonzeros       :  134881

Variables            : Min LB: -5000.000        Max UB: 1000000.       
Objective nonzeros   : Min   : 0.1944444        Max   : 208.3333       
Linear constraints   :
  Nonzeros           : Min   : 0.1944444        Max   : 1000000.       
  RHS nonzeros       : Min   : 0.1944444        Max   : 1000000.       
CPLEX> CPXPARAM_Parallel                                -1
CPXPARAM_Simplex_Tolerances_Feasibility          1.0000000000000001e-09
CPXPARAM_DetTimeLimit                            150000
CPXPARAM_MIP_Tolerances_MIPGap                   0.01
Warning:  No solution found from 1 MIP starts.
Retaining values of one MIP start for possible repair.
Tried aggregator 3 times.
MIP Presolve eliminated 182851 rows and 44150 columns.
MIP Presolve added 5998 rows and 0 columns.
MIP Presolve modified 49800 coefficients.
Aggregator did 25662 substitutions.
Reduced MIP has 44388 rows, 37779 columns, and 122842 nonzeros.
Reduced MIP has 14878 binaries, 0 generals, 0 SOSs, and 0 indicators.
Presolve time = 0.59 sec. (347.19 ticks)
Probing fixed 868 vars, tightened 10189 bounds.
Probing time = 0.41 sec. (20.70 ticks)
Tried aggregator 2 times.
MIP Presolve eliminated 1928 rows and 1736 columns.
MIP Presolve modified 11554 coefficients.
Aggregator did 48 substitutions.
Reduced MIP has 42412 rows, 35995 columns, and 117106 nonzeros.
Reduced MIP has 14010 binaries, 0 generals, 0 SOSs, and 0 indicators.
Presolve time = 0.22 sec. (198.92 ticks)
Probing fixed 0 vars, tightened 4484 bounds.
Probing time = 0.95 sec. (83.90 ticks)
Clique table members: 94598.
MIP emphasis: balance optimality and feasibility.
MIP search method: dynamic search.
Parallel mode: opportunistic, using up to 32 threads.
Root relaxation solution time = 1.05 sec. (1605.26 ticks)

        Nodes                                         Cuts/
   Node  Left     Objective  IInf  Best Integer    Best Bound    ItCnt     Gap

      0     0    12414.6151   214                  12414.6151     7894         
*     0+    0                            0.0000    12414.6151              --- 
      0     0    12414.6151   254        0.0000     Cuts: 354     8277     --- 
      0     0    12414.6151   171        0.0000     Cuts: 895     8533     --- 
      0     0    12414.6151   154        0.0000     Cuts: 359     8605     --- 
      0     0    12414.6151   153        0.0000       Cuts: 7     8608     --- 
Repair heuristic found nothing.
      0    15    infeasible              0.0000       Cuts: 9     9463     --- 
Elapsed time = 11.11 sec. (5779.80 ticks, tree = 0.02 MB, solutions = 1)
    173    46    infeasible              0.0000     6356.5386    12816     --- 
    340    22      902.5347    51        0.0000     6356.5386    14596     --- 
    437    50        cutoff              0.0000     6356.5386    13325     --- 
    479    23      120.3317    61        0.0000     6356.5386    14511     --- 

Cover cuts applied:  1
Implied bound cuts applied:  11
Flow cuts applied:  18
Mixed integer rounding cuts applied:  5
Gomory fractional cuts applied:  2

Root node processing (before b&c):
  Real time             =    8.39 sec. (5753.60 ticks)
Parallel b&c, 32 threads:
  Real time             =    5.27 sec. (1087.95 ticks)
  Sync time (average)   =    2.94 sec.
  Wait time (average)   =    0.00 sec.
                          ------------
Total (root+branch&cut) =   13.66 sec. (6841.55 ticks)

Solution pool: 1 solution saved.

MIP - Integer optimal solution:  Objective =  0.0000000000e+00
Solution time =   13.70 sec.  Iterations = 16429  Nodes = 483
Deterministic time = 6841.87 ticks  (499.26 ticks/sec)

CPLEX> Incumbent solution written to file 'C:\Users\llavin\Desktop\test826\logs\tmptc_ine6q.cplex.sol'.
CPLEX> Exporting results... 
